
  22   10
  10   10   10   10   10   10   10   10   10   10

   0   0   0   0   0   0   0   0   0   0   0  12 2 3 4 5 6 7 8 9 10 11 20 21 
   2  10  10  10  10  10  10  10  10  10  10   6 19 18 16 15 14 12 
   1  10  10  10  10  10  10  10  10  10  10   5 17 15 14 13 12 
  10  10  10  10  10  10  10  10  10  10  10   5 19 16 15 14 12 
  10  10  10  10  10  10  10  10  10  10  10   3 18 16 13 
   4  10  10  10  10  10  10  10  10  10  10   2 15 12 
   2  10  10  10  10  10  10  10  10  10  10   2 13 12 
   6  10  10  10  10  10  10  10  10  10  10   1 17 
   6  10  10  10  10  10  10  10  10  10  10   1 14 
   5  10  10  10  10  10  10  10  10  10  10   1 13 
   6  10  10  10  10  10  10  10  10  10  10   1 12 
   4  10  10  10  10  10  10  10  10  10  10   1 22
   3  10  10  10  10  10  10  10  10  10  10   1 22
   5  10  10  10  10  10  10  10  10  10  10   1 22
   1  10  10  10  10  10  10  10  10  10  10   1 22
  10  10  10  10  10  10  10  10  10  10  10   1 22
   3  10  10  10  10  10  10  10  10  10  10   1 22
   3  10  10  10  10  10  10  10  10  10  10   1 22
   5  10  10  10  10  10  10  10  10  10  10   1 22
   1  10  10  10  10  10  10  10  10  10  10   1 22
   9  10  10  10  10  10  10  10  10  10  10   1 22
   0   0   0   0   0   0   0   0   0   0   0   0 
